     Program PWSCF v.6.8 starts on 14Nov2021 at 15:30:25

     R & G space division:  proc/nbgrp/npool/nimage =      20

     Waiting for input...
     Reading input from standard input

     Current dimensions of program PWSCF are:
     Max number of different atomic species (ntypx) = 10
     Max number of k-points (npk) =  40000
     Max angular momentum in pseudopotentials (lmaxx) =  4
     file Zr.pbe-spn-kjpaw_psl.1.0.0.UPF: wavefunction(s)  4S 4P renormalized
     file Te.pbe-n-kjpaw_psl.1.0.0.UPF: wavefunction(s)  5S 5P renormalized
     Message from routine setup:
     using ibrav=0 with symmetry is DISCOURAGED, use correct ibrav instead

     Subspace diagonalization in iterative solution of the eigenvalue problem:
     a serial algorithm will be used

     Using Slab Decomposition

     bravais-lattice index     =            0
     lattice parameter (alat)  =      15.5510  a.u.
     unit-cell volume          =    3018.5011 (a.u.)^3
     number of atoms/cell      =           12
     number of atomic types    =            2
     number of electrons       =        84.00
     number of Kohn-Sham states=           50
     kinetic-energy cutoff     =      80.0000  Ry
     charge density cutoff     =     800.0000  Ry
     scf convergence threshold =      1.0E-10
     mixing beta               =       0.7000
     number of iterations used =            8  plain     mixing
     Exchange-correlation= SLA  PW   PBX  PBC
                           (   1   4   3   4   0   0   0)

     celldm(1)=  15.551040  celldm(2)=   0.000000  celldm(3)=   0.000000
     celldm(4)=   0.000000  celldm(5)=   0.000000  celldm(6)=   0.000000

     crystal axes: (cart. coord. in units of alat)
               a(1) = (   0.246007  -0.969268   0.000000 )
               a(2) = (   0.246007   0.969268   0.000000 )
               a(3) = (   0.000000   0.000000   1.683031 )

     reciprocal axes: (cart. coord. in units 2 pi/alat)
               b(1) = (  2.032465 -0.515853  0.000000 )
               b(2) = (  2.032465  0.515853  0.000000 )
               b(3) = (  0.000000  0.000000  0.594166 )

     PseudoPot. # 1 for Zr read from file:
     /lscratch/martin/195332/pseudo/Zr.pbe-spn-kjpaw_psl.1.0.0.UPF
     MD5 check sum: 02112c41713a0468aff2bb39ef194e36
     Pseudo is Projector augmented-wave + core cor, Zval = 12.0
     Generated using &quot;atomic&quot; code by A. Dal Corso  v.6.2.2
     Shape of augmentation charge: PSQ
     Using radial grid of 1225 points,  6 beta functions with:
                l(1) =   0
                l(2) =   0
                l(3) =   1
                l(4) =   1
                l(5) =   2
                l(6) =   2
     Q(r) pseudized with 0 coefficients

     PseudoPot. # 2 for Te read from file:
     /lscratch/martin/195332/pseudo/Te.pbe-n-kjpaw_psl.1.0.0.UPF
     MD5 check sum: 66247bff2bd9dbf220fbb0bf5ab56e9d
     Pseudo is Projector augmented-wave + core cor, Zval =  6.0
     Generated using &quot;atomic&quot; code by A. Dal Corso  v.6.3
     Shape of augmentation charge: PSQ
     Using radial grid of 1245 points,  6 beta functions with:
                l(1) =   0
                l(2) =   0
                l(3) =   1
                l(4) =   1
                l(5) =   2
                l(6) =   2
     Q(r) pseudized with 0 coefficients

     atomic species   valence    mass     pseudopotential
        Zr            12.00    91.22000     Zr( 1.00)
        Te             6.00   127.60000     Te( 1.00)

      8 Sym. Ops., with inversion, found ( 4 have fractional translation)

                                    s                        frac. trans.

      isym =  1     identity

 cryst.   s( 1) = (     1          0          0      )
                  (     0          1          0      )
                  (     0          0          1      )

 cart.    s( 1) = (  1.0000000  0.0000000  0.0000000 )
                  (  0.0000000  1.0000000  0.0000000 )
                  (  0.0000000  0.0000000  1.0000000 )

      isym =  2     180 deg rotation - cart. axis [0,0,1]

 cryst.   s( 2) = (    -1          0          0      )    f =(  0.0000000 )
                  (     0         -1          0      )       (  0.0000000 )
                  (     0          0          1      )       ( -0.5000000 )

 cart.    s( 2) = ( -1.0000000  0.0000000  0.0000000 )    f =(  0.0000000 )
                  (  0.0000000 -1.0000000  0.0000000 )       ( -0.0000000 )
                  (  0.0000000  0.0000000  1.0000000 )       ( -0.8415155 )

[...]

      isym =  4     180 deg rotation - cart. axis [1,0,0]

[...]

      isym =  5     inversion

[...]

      isym =  6     inv. 180 deg rotation - cart. axis [0,0,1]

[...]

 cryst.   s( 7) = (     0          1          0      )    f =(  0.0000000 )
                  (     1          0          0      )       ( -0.0000000 )
                  (     0          0          1      )       ( -0.5000000 )

 cart.    s( 7) = (  1.0000000  0.0000000  0.0000000 )    f =( -0.0000000 )
                  (  0.0000000 -1.0000000  0.0000000 )       ( -0.0000000 )
                  (  0.0000000  0.0000000  1.0000000 )       ( -0.8415155 )

      isym =  8     inv. 180 deg rotation - cart. axis [1,0,0]

 cryst.   s( 8) = (     0         -1          0      )
                  (    -1          0          0      )
                  (     0          0          1      )

 cart.    s( 8) = ( -1.0000000  0.0000000  0.0000000 )
                  (  0.0000000  1.0000000  0.0000000 )
                  (  0.0000000  0.0000000  1.0000000 )

   Cartesian axes

     site n.     atom                  positions (alat units)
         1           Zr  tau(   1) = (   0.0000000   0.6056750   0.4207578  )
         2           Zr  tau(   2) = (   0.2460067   0.3635931   1.2622733  )
         3           Te  tau(   3) = (   0.2460067   0.3342497   0.4207578  )
         4           Te  tau(   4) = (   0.0000000   0.6350184   1.2622733  )
         5           Te  tau(   5) = (   0.2460067   0.8097950   0.2520424  )
         6           Te  tau(   6) = (   0.0000000   0.1594731   1.4309887  )
         7           Te  tau(   7) = (   0.2460067   0.8097950   0.5894732  )
         8           Te  tau(   8) = (   0.0000000   0.1594731   1.0935579  )
         9           Te  tau(   9) = (   0.0000000   0.4147735   0.7307695  )
        10           Te  tau(  10) = (   0.2460067   0.5544946   0.9522616  )
        11           Te  tau(  11) = (   0.0000000   0.4147735   0.1107461  )
        12           Te  tau(  12) = (   0.2460067   0.5544946   1.5722850  )

   Crystallographic axes

     site n.     atom                  positions (cryst. coord.)
         1           Zr  tau(   1) = ( -0.3124394  0.3124394  0.2500000  )
         2           Zr  tau(   2) = (  0.3124394  0.6875606  0.7500000  )
         3           Te  tau(   3) = (  0.3275762  0.6724238  0.2500000  )
         4           Te  tau(   4) = ( -0.3275762  0.3275762  0.7500000  )
         5           Te  tau(   5) = (  0.0822647  0.9177353  0.1497550  )
         6           Te  tau(   6) = ( -0.0822647  0.0822647  0.8502450  )
         7           Te  tau(   7) = (  0.0822647  0.9177353  0.3502450  )
         8           Te  tau(   8) = ( -0.0822647  0.0822647  0.6497550  )
         9           Te  tau(   9) = ( -0.2139622  0.2139622  0.4341984  )
        10           Te  tau(  10) = (  0.2139622  0.7860378  0.5658016  )
        11           Te  tau(  11) = ( -0.2139622  0.2139622  0.0658016  )
        12           Te  tau(  12) = (  0.2139622  0.7860378  0.9341984  )

     number of k points=    63  Methfessel-Paxton smearing, width (Ry)=  0.0030
                       cart. coord. in units 2pi/alat
        k(    1) = (   0.0000000   0.0000000   0.0000000), wk =   0.0078125
        k(    2) = (   0.0000000   0.0000000   0.1485415), wk =   0.0156250
        k(    3) = (   0.0000000   0.0000000  -0.2970830), wk =   0.0078125
        k(    4) = (   0.2540581   0.0644816   0.0000000), wk =   0.0312500
        k(    5) = (   0.2540581   0.0644816   0.1485415), wk =   0.0625000
        k(    6) = (   0.2540581   0.0644816  -0.2970830), wk =   0.0312500
        k(    7) = (   0.5081162   0.1289633   0.0000000), wk =   0.0312500
        k(    8) = (   0.5081162   0.1289633   0.1485415), wk =   0.0625000
        k(    9) = (   0.5081162   0.1289633  -0.2970830), wk =   0.0312500
        k(   10) = (   0.7621743   0.1934449   0.0000000), wk =   0.0312500
        k(   11) = (   0.7621743   0.1934449   0.1485415), wk =   0.0625000
        k(   12) = (   0.7621743   0.1934449  -0.2970830), wk =   0.0312500
        k(   13) = (  -1.0162324  -0.2579266   0.0000000), wk =   0.0156250
        k(   14) = (  -1.0162324  -0.2579266   0.1485415), wk =   0.0312500
        k(   15) = (  -1.0162324  -0.2579266  -0.2970830), wk =   0.0156250
        k(   16) = (   0.5081162   0.0000000   0.0000000), wk =   0.0156250
        k(   17) = (   0.5081162   0.0000000   0.1485415), wk =   0.0312500
        k(   18) = (   0.5081162   0.0000000  -0.2970830), wk =   0.0156250
        k(   19) = (   0.7621743   0.0644816   0.0000000), wk =   0.0312500
        k(   20) = (   0.7621743   0.0644816   0.1485415), wk =   0.0625000
        k(   21) = (   0.7621743   0.0644816  -0.2970830), wk =   0.0312500
        k(   22) = (   1.0162324   0.1289633   0.0000000), wk =   0.0312500
        k(   23) = (   1.0162324   0.1289633   0.1485415), wk =   0.0625000
        k(   24) = (   1.0162324   0.1289633  -0.2970830), wk =   0.0312500
        k(   25) = (  -0.7621743  -0.3224082   0.0000000), wk =   0.0312500
        k(   26) = (  -0.7621743  -0.3224082   0.1485415), wk =   0.0625000
        k(   27) = (  -0.7621743  -0.3224082  -0.2970830), wk =   0.0312500
        k(   28) = (  -0.5081162  -0.2579266   0.0000000), wk =   0.0312500
        k(   29) = (  -0.5081162  -0.2579266   0.1485415), wk =   0.0625000
        k(   30) = (  -0.5081162  -0.2579266  -0.2970830), wk =   0.0312500
        k(   31) = (  -0.2540581  -0.1934449   0.0000000), wk =   0.0312500
        k(   32) = (  -0.2540581  -0.1934449   0.1485415), wk =   0.0625000
        k(   33) = (  -0.2540581  -0.1934449  -0.2970830), wk =   0.0312500
        k(   34) = (   0.0000000  -0.1289633   0.0000000), wk =   0.0156250
        k(   35) = (   0.0000000  -0.1289633   0.1485415), wk =   0.0312500
        k(   36) = (   0.0000000  -0.1289633  -0.2970830), wk =   0.0156250
        k(   37) = (   1.0162324   0.0000000   0.0000000), wk =   0.0156250
        k(   38) = (   1.0162324   0.0000000   0.1485415), wk =   0.0312500
        k(   39) = (   1.0162324   0.0000000  -0.2970830), wk =   0.0156250
        k(   40) = (   1.2702904   0.0644816   0.0000000), wk =   0.0312500
        k(   41) = (   1.2702904   0.0644816   0.1485415), wk =   0.0625000
        k(   42) = (   1.2702904   0.0644816  -0.2970830), wk =   0.0312500
        k(   43) = (  -0.5081162  -0.3868899   0.0000000), wk =   0.0312500
        k(   44) = (  -0.5081162  -0.3868899   0.1485415), wk =   0.0625000
        k(   45) = (  -0.5081162  -0.3868899  -0.2970830), wk =   0.0312500
        k(   46) = (  -0.2540581  -0.3224082   0.0000000), wk =   0.0312500
[...]
        k(   29) = (   0.1250000  -0.3750000   0.2500000), wk =   0.0625000
        k(   30) = (   0.1250000  -0.3750000  -0.5000000), wk =   0.0312500
        k(   31) = (   0.1250000  -0.2500000   0.0000000), wk =   0.0312500
        k(   32) = (   0.1250000  -0.2500000   0.2500000), wk =   0.0625000
        k(   33) = (   0.1250000  -0.2500000  -0.5000000), wk =   0.0312500
        k(   34) = (   0.1250000  -0.1250000   0.0000000), wk =   0.0156250
        k(   35) = (   0.1250000  -0.1250000   0.2500000), wk =   0.0312500
        k(   36) = (   0.1250000  -0.1250000  -0.5000000), wk =   0.0156250
        k(   37) = (   0.2500000   0.2500000   0.0000000), wk =   0.0156250
        k(   38) = (   0.2500000   0.2500000   0.2500000), wk =   0.0312500
        k(   39) = (   0.2500000   0.2500000  -0.5000000), wk =   0.0156250
        k(   40) = (   0.2500000   0.3750000   0.0000000), wk =   0.0312500
        k(   41) = (   0.2500000   0.3750000   0.2500000), wk =   0.0625000
        k(   42) = (   0.2500000   0.3750000  -0.5000000), wk =   0.0312500
        k(   43) = (   0.2500000  -0.5000000   0.0000000), wk =   0.0312500
        k(   44) = (   0.2500000  -0.5000000   0.2500000), wk =   0.0625000
        k(   45) = (   0.2500000  -0.5000000  -0.5000000), wk =   0.0312500
        k(   46) = (   0.2500000  -0.3750000   0.0000000), wk =   0.0312500
        k(   47) = (   0.2500000  -0.3750000   0.2500000), wk =   0.0625000
        k(   48) = (   0.2500000  -0.3750000  -0.5000000), wk =   0.0312500
        k(   49) = (   0.2500000  -0.2500000   0.0000000), wk =   0.0156250
        k(   50) = (   0.2500000  -0.2500000   0.2500000), wk =   0.0312500
        k(   51) = (   0.2500000  -0.2500000  -0.5000000), wk =   0.0156250
        k(   52) = (   0.3750000   0.3750000   0.0000000), wk =   0.0156250
        k(   53) = (   0.3750000   0.3750000   0.2500000), wk =   0.0312500
        k(   54) = (   0.3750000   0.3750000  -0.5000000), wk =   0.0156250
        k(   55) = (   0.3750000  -0.5000000   0.0000000), wk =   0.0312500
        k(   56) = (   0.3750000  -0.5000000   0.2500000), wk =   0.0625000
        k(   57) = (   0.3750000  -0.5000000  -0.5000000), wk =   0.0312500
        k(   58) = (   0.3750000  -0.3750000   0.0000000), wk =   0.0156250
        k(   59) = (   0.3750000  -0.3750000   0.2500000), wk =   0.0312500
        k(   60) = (   0.3750000  -0.3750000  -0.5000000), wk =   0.0156250
        k(   61) = (  -0.5000000  -0.5000000   0.0000000), wk =   0.0078125
        k(   62) = (  -0.5000000  -0.5000000   0.2500000), wk =   0.0156250
        k(   63) = (  -0.5000000  -0.5000000  -0.5000000), wk =   0.0078125

     Initial potential from superposition of free atoms

     starting charge   83.99353, renormalised to   84.00000
     Starting wfcs are   66 randomized atomic wfcs
     Checking if some PAW data can be deallocated...

     Self-consistent Calculation

     iteration #  1     ecut=    80.00 Ry     beta= 0.70
     Davidson diagonalization with overlap

     ethr =  1.00E-02,  avg # of iterations =  2.1

     Threshold (ethr) on eigenvalues was too large:
     Diagonalizing with lowered threshold

     Davidson diagonalization with overlap

[...]

     total energy              =   -4240.73120978 Ry
     estimated scf accuracy    <       0.43540860 Ry

[...]

     WARNING: integrated charge=    83.99821336, expected=    84.00000000

[...]

     c_bands:  1 eigenvalues not converged
     c_bands:  2 eigenvalues not converged
     c_bands:  1 eigenvalues not converged
     c_bands:  1 eigenvalues not converged
     c_bands:  2 eigenvalues not converged
     c_bands:  1 eigenvalues not converged
     c_bands:  1 eigenvalues not converged
     c_bands:  2 eigenvalues not converged
     c_bands:  1 eigenvalues not converged
     c_bands:  1 eigenvalues not converged
     c_bands:  2 eigenvalues not converged
     c_bands:  2 eigenvalues not converged
     c_bands:  2 eigenvalues not converged
     c_bands:  1 eigenvalues not converged
     ethr =  1.30E-05,  avg # of iterations = 17.6

[...]

     c_bands:  1 eigenvalues not converged
     ethr =  1.31E-09,  avg # of iterations =  3.4

[...]

     total energy              =   -4240.95572634 Ry
     estimated scf accuracy    <          8.9E-10 Ry

     iteration # 17     ecut=    80.00 Ry     beta= 0.70
     Davidson diagonalization with overlap

     ethr =  1.06E-12,  avg # of iterations =  3.5

     End of self-consistent calculation

          k = 0.0000 0.0000 0.0000 ( 36359 PWs)   bands (ev):

   -44.1344 -44.1344 -22.2606 -22.2606 -22.1673 -22.1673 -22.0645 -22.0643
    -7.8638  -7.4975  -7.1299  -6.8631  -6.3096  -5.4097  -4.9303  -4.8390
    -4.7879  -3.8353   0.3407   0.7488   0.7700   1.1200   1.4517   1.5306
     2.2634   2.3349   2.5595   2.7383   2.9456   3.0101   3.2504   3.4077
     3.6978   3.7952   3.9720   4.0689   4.2474   4.3376   4.3587   4.6757
     4.8493   5.4901   5.6361   5.8323   5.8425   5.9460   6.1547   6.8285
     6.9865   7.2716

     occupation numbers
     1.0000   1.0000   1.0000   1.0000   1.0000   1.0000   1.0000   1.0000
     1.0000   1.0000   1.0000   1.0000   1.0000   1.0000   1.0000   1.0000
     1.0000   1.0000   1.0000   1.0000   1.0000   1.0000   1.0000   1.0000
     1.0000   1.0000   1.0000   1.0000   1.0000   1.0000   1.0000   1.0000
     1.0000   1.0000   1.0000   1.0000   1.0000   1.0000   1.0000   1.0000
     1.0000   0.7290  -0.0000  -0.0000  -0.0000  -0.0000  -0.0000  -0.0000
    -0.0000  -0.0000

[...]

          k =-1.0162-0.2579 0.0000 ( 36506 PWs)   bands (ev):

[...]

          k = 0.0000-0.3869-0.2971 ( 36454 PWs)   bands (ev):

[...]

          k =-2.0325 0.0000-0.2971 ( 36460 PWs)   bands (ev):

[...]

     occupation numbers
     1.0000   1.0000   1.0000   1.0000   1.0000   1.0000   1.0000   1.0000
     1.0000   1.0000   1.0000   1.0000   1.0000   1.0000   1.0000   1.0000
     1.0000   1.0000   1.0000   1.0000   1.0000   1.0000   1.0000   1.0000
     1.0000   1.0000   1.0000   1.0000   1.0000   1.0000   1.0000   1.0000
     1.0000   1.0000   1.0000   1.0000   1.0000   1.0000   1.0000   1.0000
     1.0000   1.0000  -0.0000  -0.0000  -0.0000  -0.0000  -0.0000  -0.0000
    -0.0000  -0.0000

     the Fermi energy is     5.5016 ev

     WARNING: integrated charge=    83.99594593, expected=    84.00000000

!    total energy              =   -4240.95572595 Ry

     total all-electron energy =   -150287.649421 Ry
     estimated scf accuracy    <          6.7E-11 Ry
     smearing contrib. (-TS)   =       0.00001635 Ry
     internal energy E=F+TS    =   -4240.95574230 Ry

     The total energy is F=E-TS. E is the sum of the following terms:
     one-electron contribution =    -166.90364609 Ry
     hartree contribution      =     116.92626799 Ry
     xc contribution           =    -201.49751423 Ry
     ewald contribution        =    -221.96099987 Ry
     one-center paw contrib.   =   -3767.51985010 Ry
      -> PAW hartree energy AE =      49.90079854 Ry
      -> PAW hartree energy PS =     -49.55726935 Ry
      -> PAW xc energy AE      =    -226.25385127 Ry
      -> PAW xc energy PS      =      15.91067118 Ry
      -> total E_H with PAW    =     117.26979719 Ry
      -> total E_XC with PAW   =    -411.84069432 Ry

     convergence has been achieved in  17 iterations

     Forces acting on atoms (cartesian axes, Ry/au):

     atom    1 type  1   force =     0.00000000   -0.00024960    0.00000000
     atom    2 type  1   force =    -0.00000000    0.00024960    0.00000000
     atom    3 type  2   force =     0.00000000    0.00004298    0.00000000
     atom    4 type  2   force =     0.00000000   -0.00004298    0.00000000
     atom    5 type  2   force =     0.00000000    0.00007103    0.00017897
     atom    6 type  2   force =     0.00000000   -0.00007103   -0.00017897
     atom    7 type  2   force =     0.00000000    0.00007103   -0.00017897
     atom    8 type  2   force =     0.00000000   -0.00007103    0.00017897
     atom    9 type  2   force =     0.00000000    0.00040168    0.00035788
     atom   10 type  2   force =     0.00000000   -0.00040168   -0.00035788
     atom   11 type  2   force =     0.00000000    0.00040168   -0.00035788
     atom   12 type  2   force =     0.00000000   -0.00040168    0.00035788
     The non-local contrib.  to forces
     atom    1 type  1   force =    -0.00000000   -0.01115703    0.00000000
     atom    2 type  1   force =     0.00000000    0.01115703    0.00000000
     atom    3 type  2   force =     0.00000000    0.10805505    0.00000000
     atom    4 type  2   force =     0.00000000   -0.10805505    0.00000000
     atom    5 type  2   force =     0.00000000   -0.04989001    0.12338593
     atom    6 type  2   force =     0.00000000    0.04989001   -0.12338593
     atom    7 type  2   force =    -0.00000000   -0.04989001   -0.12338593
     atom    8 type  2   force =     0.00000000    0.04989001    0.12338593
     atom    9 type  2   force =    -0.00000000    0.10570968    0.03382337
     atom   10 type  2   force =     0.00000000   -0.10570968   -0.03382337
     atom   11 type  2   force =     0.00000000    0.10570968   -0.03382337
     atom   12 type  2   force =     0.00000000   -0.10570968    0.03382337
     The ionic contribution  to forces
     atom    1 type  1   force =     0.00000000    2.05819075   -0.00000000
     atom    2 type  1   force =     0.00000000   -2.05819075   -0.00000000
     atom    3 type  2   force =     0.00000000   -6.93955879   -0.00000000
     atom    4 type  2   force =    -0.00000000    6.93955879    0.00000000
     atom    5 type  2   force =     0.00000000    6.07101440   -4.73176899
     atom    6 type  2   force =    -0.00000000   -6.07101440    4.73176899
     atom    7 type  2   force =     0.00000000    6.07101440    4.73176899
     atom    8 type  2   force =    -0.00000000   -6.07101440   -4.73176899
     atom    9 type  2   force =    -0.00000000   -3.56977939    1.76066934
     atom   10 type  2   force =     0.00000000    3.56977939   -1.76066934
     atom   11 type  2   force =    -0.00000000   -3.56977939   -1.76066934
     atom   12 type  2   force =     0.00000000    3.56977939    1.76066934
     The local contribution  to forces
     atom    1 type  1   force =     0.00000000   -2.04817494   -0.00000000
     atom    2 type  1   force =     0.00000000    2.04817494   -0.00000000
     atom    3 type  2   force =     0.00000000    6.85178991   -0.00000000
     atom    4 type  2   force =    -0.00000000   -6.85178991   -0.00000000
     atom    5 type  2   force =     0.00000000   -6.03048018    4.63216032
     atom    6 type  2   force =    -0.00000000    6.03048018   -4.63216032
     atom    7 type  2   force =    -0.00000000   -6.03048018   -4.63216032
     atom    8 type  2   force =     0.00000000    6.03048018    4.63216032
     atom    9 type  2   force =    -0.00000000    3.48462010   -1.78792544
     atom   10 type  2   force =     0.00000000   -3.48462010    1.78792544
     atom   11 type  2   force =    -0.00000000    3.48462010    1.78792544
     atom   12 type  2   force =     0.00000000   -3.48462010   -1.78792544
     The core correction contribution to forces
     atom    1 type  1   force =     0.00000000    0.00089205    0.00000000
     atom    2 type  1   force =    -0.00000000   -0.00089205    0.00000000
     atom    3 type  2   force =     0.00000000   -0.02024754    0.00000000
     atom    4 type  2   force =    -0.00000000    0.02024754    0.00000000
     atom    5 type  2   force =    -0.00000000    0.00943042   -0.02360067
     atom    6 type  2   force =    -0.00000000   -0.00943042    0.02360067
     atom    7 type  2   force =    -0.00000000    0.00943042    0.02360067
     atom    8 type  2   force =    -0.00000000   -0.00943042   -0.02360067
     atom    9 type  2   force =     0.00000000   -0.02015057   -0.00620774
     atom   10 type  2   force =    -0.00000000    0.02015057    0.00620774
     atom   11 type  2   force =     0.00000000   -0.02015057    0.00620774
     atom   12 type  2   force =    -0.00000000    0.02015057   -0.00620774
     The Hubbard contrib.    to forces
     atom    1 type  1   force =     0.00000000    0.00000000    0.00000000
     atom    2 type  1   force =     0.00000000    0.00000000    0.00000000
     atom    3 type  2   force =     0.00000000    0.00000000    0.00000000
     atom    4 type  2   force =     0.00000000    0.00000000    0.00000000
     atom    5 type  2   force =     0.00000000    0.00000000    0.00000000
     atom    6 type  2   force =     0.00000000    0.00000000    0.00000000
     atom    7 type  2   force =     0.00000000    0.00000000    0.00000000
     atom    8 type  2   force =     0.00000000    0.00000000    0.00000000
     atom    9 type  2   force =     0.00000000    0.00000000    0.00000000
     atom   10 type  2   force =     0.00000000    0.00000000    0.00000000
     atom   11 type  2   force =     0.00000000    0.00000000    0.00000000
     atom   12 type  2   force =     0.00000000    0.00000000    0.00000000
     The SCF correction term to forces
     atom    1 type  1   force =     0.00000000   -0.00000043    0.00000000
     atom    2 type  1   force =    -0.00000000    0.00000043    0.00000000
     atom    3 type  2   force =     0.00000000    0.00000435   -0.00000000
     atom    4 type  2   force =    -0.00000000   -0.00000435   -0.00000000
     atom    5 type  2   force =    -0.00000000   -0.00000361    0.00000237
     atom    6 type  2   force =    -0.00000000    0.00000361   -0.00000237
     atom    7 type  2   force =    -0.00000000   -0.00000361   -0.00000237
     atom    8 type  2   force =     0.00000000    0.00000361    0.00000237
     atom    9 type  2   force =     0.00000000    0.00000186   -0.00000165
     atom   10 type  2   force =    -0.00000000   -0.00000186    0.00000165
     atom   11 type  2   force =    -0.00000000    0.00000186    0.00000165
     atom   12 type  2   force =     0.00000000   -0.00000186   -0.00000165

     Total force =     0.001198     Total SCF correction =     0.000012

     Computing stress (Cartesian axis) and pressure

          total   stress  (Ry/bohr**3)                   (kbar)     P=       -0.26
  -0.00000123  -0.00000000   0.00000000           -0.18       -0.00        0.00
  -0.00000000  -0.00000143   0.00000000           -0.00       -0.21        0.00
   0.00000000   0.00000000  -0.00000272            0.00        0.00       -0.40

     kinetic stress (kbar)   4072.33     -0.00      0.00
                               -0.00   4158.49      0.00
                                0.00      0.00   4005.85

     local   stress (kbar)  -9016.65      0.00      0.00
                                0.00   2141.80      0.00
                                0.00      0.00  -4399.02

     nonloc. stress (kbar)   2824.72      0.00      0.00
                                0.00   2839.76      0.00
                                0.00      0.00   2809.90

     hartree stress (kbar)   4220.89      0.00      0.00
                                0.00   -625.45     -0.00
                                0.00     -0.00   2102.91

     exc-cor stress (kbar)   5449.32      0.00     -0.00
                                0.00   5446.09     -0.00
                               -0.00     -0.00   5450.29

     corecor stress (kbar)  -6888.26      0.00      0.00
                                0.00  -6895.49      0.00
                                0.00      0.00  -6881.11

     ewald   stress (kbar)   -662.53     -0.00     -0.00
                               -0.00  -7065.40      0.00
                               -0.00      0.00  -3089.23

     hubbard stress (kbar)      0.00      0.00      0.00
                                0.00      0.00      0.00
                                0.00      0.00      0.00

     DFT-D   stress (kbar)      0.00      0.00      0.00
                                0.00      0.00      0.00
                                0.00      0.00      0.00

     XDM     stress (kbar)      0.00      0.00      0.00
                                0.00      0.00      0.00
                                0.00      0.00      0.00

     dft-nl  stress (kbar)      0.00      0.00      0.00
                                0.00      0.00      0.00
                                0.00      0.00      0.00

     TS-vdW  stress (kbar)      0.00      0.00      0.00
                                0.00      0.00      0.00
                                0.00      0.00      0.00

[...]

                                0.00      0.00      0.00

     Writing output data file /lscratch/martin/195332/tmp/ZrTe5.save/

     General routines

     Parallel routines

     PAW routines

   This run was terminated on:  15:38:13  14Nov2021

   JOB DONE.