     Program PWSCF v.6.7MaX starts on 19Nov2021 at 14:46:22

     R & G space division:  proc/nbgrp/npool/nimage =      10
     Waiting for input...
     Reading input from standard input

     Current dimensions of program PWSCF are:
     Max number of different atomic species (ntypx) = 10
     Max number of k-points (npk) =  40000
     Max angular momentum in pseudopotentials (lmaxx) =  3
     file Zr.pbe-spn-kjpaw_psl.1.0.0.UPF: wavefunction(s)  4S 4P renormalized
     file Te.pbe-n-kjpaw_psl.1.0.0.UPF: wavefunction(s)  5S 5P renormalized

     Subspace diagonalization in iterative solution of the eigenvalue problem:
     a serial algorithm will be used

     Message from routine setup:
     using ibrav=0 with symmetry is DISCOURAGED, use correct ibrav instead

     bravais-lattice index     =            0
     lattice parameter (alat)  =      15.5510  a.u.
     unit-cell volume          =    3018.5011 (a.u.)^3
     number of atoms/cell      =           12
     number of atomic types    =            2
     number of electrons       =        84.00
     number of Kohn-Sham states=           50
     kinetic-energy cutoff     =      80.0000  Ry
     charge density cutoff     =     800.0000  Ry
     scf convergence threshold =      1.0E-10
     mixing beta               =       0.7000
     number of iterations used =            8  plain     mixing
     Exchange-correlation= SLA  PW   PBX  PBC
                           (   1   4   3   4   0   0   0)

     celldm(1)=  15.551040  celldm(2)=   0.000000  celldm(3)=   0.000000
     celldm(4)=   0.000000  celldm(5)=   0.000000  celldm(6)=   0.000000

     crystal axes: (cart. coord. in units of alat)
               a(1) = (   0.246007  -0.969268   0.000000 )
               a(2) = (   0.246007   0.969268   0.000000 )
               a(3) = (   0.000000   0.000000   1.683031 )

     reciprocal axes: (cart. coord. in units 2 pi/alat)
               b(1) = (  2.032465 -0.515853  0.000000 )
               b(2) = (  2.032465  0.515853  0.000000 )
               b(3) = (  0.000000  0.000000  0.594166 )

     PseudoPot. # 1 for Zr read from file:
     pseudo/Zr.pbe-spn-kjpaw_psl.1.0.0.UPF
     MD5 check sum: 02112c41713a0468aff2bb39ef194e36
     Pseudo is Projector augmented-wave + core cor, Zval = 12.0
     Generated using &quot;atomic&quot; code by A. Dal Corso  v.6.2.2
     Shape of augmentation charge: PSQ
     Using radial grid of 1225 points,  6 beta functions with:
                l(1) =   0
                l(2) =   0
                l(3) =   1
                l(4) =   1
                l(5) =   2
                l(6) =   2
     Q(r) pseudized with 0 coefficients

     PseudoPot. # 2 for Te read from file:
     pseudo/Te.pbe-n-kjpaw_psl.1.0.0.UPF
     MD5 check sum: 66247bff2bd9dbf220fbb0bf5ab56e9d
     Pseudo is Projector augmented-wave + core cor, Zval =  6.0
     Generated using &quot;atomic&quot; code by A. Dal Corso  v.6.3
     Shape of augmentation charge: PSQ
     Using radial grid of 1245 points,  6 beta functions with:
                l(1) =   0
                l(2) =   0
                l(3) =   1
                l(4) =   1
                l(5) =   2
                l(6) =   2
     Q(r) pseudized with 0 coefficients

     atomic species   valence    mass     pseudopotential
        Zr            12.00    91.22000     Zr( 1.00)
        Te             6.00   127.60000     Te( 1.00)

      8 Sym. Ops., with inversion, found ( 4 have fractional translation)

   Cartesian axes

     site n.     atom                  positions (alat units)
         1           Zr  tau(   1) = (   0.0000000   0.6107100   0.4207578  )
         2           Zr  tau(   2) = (   0.2460067   0.3585581   1.2622733  )
         3           Te  tau(   3) = (   0.2460067   0.3343509   0.4207578  )
         4           Te  tau(   4) = (   0.0000000   0.6349172   1.2622733  )
         5           Te  tau(   5) = (   0.2460067   0.8075031   0.2504779  )
         6           Te  tau(   6) = (   0.0000000   0.1617650   1.4325532  )
         7           Te  tau(   7) = (   0.2460067   0.8075031   0.5910376  )
         8           Te  tau(   8) = (   0.0000000   0.1617650   1.0919934  )
         9           Te  tau(   9) = (   0.0000000   0.4059530   0.7223541  )
        10           Te  tau(  10) = (   0.2460067   0.5633151   0.9606770  )
        11           Te  tau(  11) = (   0.0000000   0.4059530   0.1191614  )
        12           Te  tau(  12) = (   0.2460067   0.5633151   1.5638696  )

     number of k points=    63  Methfessel-Paxton smearing, width (Ry)=  0.0030
                       cart. coord. in units 2pi/alat
        k(    1) = (   0.0000000   0.0000000   0.0000000), wk =   0.0078125
        k(    2) = (   0.0000000   0.0000000   0.1485415), wk =   0.0156250
        k(    3) = (   0.0000000   0.0000000  -0.2970830), wk =   0.0078125
        k(    4) = (   0.2540581   0.0644816   0.0000000), wk =   0.0312500
        k(    5) = (   0.2540581   0.0644816   0.1485415), wk =   0.0625000
        k(    6) = (   0.2540581   0.0644816  -0.2970830), wk =   0.0312500
        k(    7) = (   0.5081162   0.1289633   0.0000000), wk =   0.0312500
        k(    8) = (   0.5081162   0.1289633   0.1485415), wk =   0.0625000
        k(    9) = (   0.5081162   0.1289633  -0.2970830), wk =   0.0312500
        k(   10) = (   0.7621743   0.1934449   0.0000000), wk =   0.0312500
        k(   11) = (   0.7621743   0.1934449   0.1485415), wk =   0.0625000
        k(   12) = (   0.7621743   0.1934449  -0.2970830), wk =   0.0312500
        k(   13) = (  -1.0162324  -0.2579266   0.0000000), wk =   0.0156250
        k(   14) = (  -1.0162324  -0.2579266   0.1485415), wk =   0.0312500
        k(   15) = (  -1.0162324  -0.2579266  -0.2970830), wk =   0.0156250
        k(   16) = (   0.5081162   0.0000000   0.0000000), wk =   0.0156250
        k(   17) = (   0.5081162   0.0000000   0.1485415), wk =   0.0312500
        k(   18) = (   0.5081162   0.0000000  -0.2970830), wk =   0.0156250
        k(   19) = (   0.7621743   0.0644816   0.0000000), wk =   0.0312500
        k(   20) = (   0.7621743   0.0644816   0.1485415), wk =   0.0625000
        k(   21) = (   0.7621743   0.0644816  -0.2970830), wk =   0.0312500
        k(   22) = (   1.0162324   0.1289633   0.0000000), wk =   0.0312500
        k(   23) = (   1.0162324   0.1289633   0.1485415), wk =   0.0625000
        k(   24) = (   1.0162324   0.1289633  -0.2970830), wk =   0.0312500
        k(   25) = (  -0.7621743  -0.3224082   0.0000000), wk =   0.0312500
        k(   26) = (  -0.7621743  -0.3224082   0.1485415), wk =   0.0625000
        k(   27) = (  -0.7621743  -0.3224082  -0.2970830), wk =   0.0312500
        k(   28) = (  -0.5081162  -0.2579266   0.0000000), wk =   0.0312500
        k(   29) = (  -0.5081162  -0.2579266   0.1485415), wk =   0.0625000
        k(   30) = (  -0.5081162  -0.2579266  -0.2970830), wk =   0.0312500
        k(   31) = (  -0.2540581  -0.1934449   0.0000000), wk =   0.0312500
        k(   32) = (  -0.2540581  -0.1934449   0.1485415), wk =   0.0625000
        k(   33) = (  -0.2540581  -0.1934449  -0.2970830), wk =   0.0312500
        k(   34) = (   0.0000000  -0.1289633   0.0000000), wk =   0.0156250
        k(   35) = (   0.0000000  -0.1289633   0.1485415), wk =   0.0312500
        k(   36) = (   0.0000000  -0.1289633  -0.2970830), wk =   0.0156250
        k(   37) = (   1.0162324   0.0000000   0.0000000), wk =   0.0156250
        k(   38) = (   1.0162324   0.0000000   0.1485415), wk =   0.0312500
        k(   39) = (   1.0162324   0.0000000  -0.2970830), wk =   0.0156250
        k(   40) = (   1.2702905   0.0644816   0.0000000), wk =   0.0312500
        k(   41) = (   1.2702905   0.0644816   0.1485415), wk =   0.0625000
        k(   42) = (   1.2702905   0.0644816  -0.2970830), wk =   0.0312500
        k(   43) = (  -0.5081162  -0.3868899   0.0000000), wk =   0.0312500
        k(   44) = (  -0.5081162  -0.3868899   0.1485415), wk =   0.0625000
        k(   45) = (  -0.5081162  -0.3868899  -0.2970830), wk =   0.0312500
        k(   46) = (  -0.2540581  -0.3224082   0.0000000), wk =   0.0312500
        k(   47) = (  -0.2540581  -0.3224082   0.1485415), wk =   0.0625000
        k(   48) = (  -0.2540581  -0.3224082  -0.2970830), wk =   0.0312500
        k(   49) = (   0.0000000  -0.2579266   0.0000000), wk =   0.0156250
        k(   50) = (   0.0000000  -0.2579266   0.1485415), wk =   0.0312500
        k(   51) = (   0.0000000  -0.2579266  -0.2970830), wk =   0.0156250
        k(   52) = (   1.5243485   0.0000000   0.0000000), wk =   0.0156250
        k(   53) = (   1.5243485   0.0000000   0.1485415), wk =   0.0312500
        k(   54) = (   1.5243485   0.0000000  -0.2970830), wk =   0.0156250
        k(   55) = (  -0.2540581  -0.4513715   0.0000000), wk =   0.0312500
        k(   56) = (  -0.2540581  -0.4513715   0.1485415), wk =   0.0625000
        k(   57) = (  -0.2540581  -0.4513715  -0.2970830), wk =   0.0312500
        k(   58) = (   0.0000000  -0.3868899   0.0000000), wk =   0.0156250
        k(   59) = (   0.0000000  -0.3868899   0.1485415), wk =   0.0312500
        k(   60) = (   0.0000000  -0.3868899  -0.2970830), wk =   0.0156250
        k(   61) = (  -2.0324647   0.0000000   0.0000000), wk =   0.0078125
        k(   62) = (  -2.0324647   0.0000000   0.1485415), wk =   0.0156250
        k(   63) = (  -2.0324647   0.0000000  -0.2970830), wk =   0.0078125

     Initial potential from superposition of free atoms

     starting charge   83.99353, renormalised to   84.00000
     Starting wfcs are   66 randomized atomic wfcs
     Checking if some PAW data can be deallocated...

     Self-consistent Calculation

     iteration #  1     ecut=    80.00 Ry     beta= 0.70
     Davidson diagonalization with overlap
     ethr =  1.00E-02,  avg # of iterations =  2.0

     Threshold (ethr) on eigenvalues was too large:
     Diagonalizing with lowered threshold

     Davidson diagonalization with overlap
     ethr =  3.83E-04,  avg # of iterations =  4.1

     total energy              =   -4240.71894172 Ry
     estimated scf accuracy    <       0.42781221 Ry

[...]

     iteration #  4     ecut=    80.00 Ry     beta= 0.70
     Davidson diagonalization with overlap
     c_bands:  1 eigenvalues not converged
     c_bands:  1 eigenvalues not converged
     c_bands:  1 eigenvalues not converged
     c_bands:  1 eigenvalues not converged
     c_bands:  1 eigenvalues not converged
     c_bands:  2 eigenvalues not converged
     ethr =  2.58E-05,  avg # of iterations = 16.3

[...]

     iteration # 13     ecut=    80.00 Ry     beta= 0.70
     Davidson diagonalization with overlap
     c_bands:  1 eigenvalues not converged
     ethr =  6.63E-11,  avg # of iterations =  7.1

[...]

     total energy              =   -4240.94146107 Ry
     estimated scf accuracy    <          5.1E-10 Ry

     iteration # 16     ecut=    80.00 Ry     beta= 0.70
     Davidson diagonalization with overlap
     ethr =  6.10E-13,  avg # of iterations =  2.0

     End of self-consistent calculation

          k = 0.0000 0.0000 0.0000 ( 36359 PWs)   bands (ev):

   -44.1511 -44.1511 -22.2921 -22.2920 -22.1891 -22.1891 -22.0731 -22.0730
    -7.6669  -7.1600  -7.0378  -6.7821  -6.5278  -5.3311  -5.1008  -4.8983
    -4.8433  -3.8618   0.4373   0.6938   0.7701   1.0659   1.4953   1.5801
     2.4159   2.4701   2.6355   3.0086   3.0281   3.0383   3.1140   3.4998
     3.5712   3.6294   3.8694   4.0469   4.1232   4.2919   4.3212   4.6280
     5.1039   5.5525   5.5793   5.6372   5.8518   6.0294   6.3731   6.8055
     6.9383   7.2929

[...]

          k =-1.0162-0.2579 0.0000 ( 36506 PWs)   bands (ev):

[...]

          k = 0.0000-0.3869-0.2971 ( 36454 PWs)   bands (ev):

[...]

          k =-2.0325 0.0000-0.2971 ( 36460 PWs)   bands (ev):

   -44.1511 -44.1511 -22.2921 -22.2921 -22.1891 -22.1891 -22.0730 -22.0730
    -7.4724  -7.4724  -6.8685  -6.8685  -6.1158  -6.1158  -4.9039  -4.9039
    -4.2799  -4.2799   0.7306   0.7306   1.1951   1.1951   1.5049   1.5049
     2.5436   2.5437   2.6393   2.6393   2.9875   2.9875   3.0038   3.0038
     3.7931   3.7931   3.8800   3.8800   3.9464   3.9464   4.4056   4.4056
     4.7155   4.7155   5.8865   5.8865   6.3335   6.3335   6.3919   6.3919
     7.1021   7.1021

     the Fermi energy is     5.3123 ev

!    total energy              =   -4240.94146107 Ry

     total all-electron energy =   -150287.635156 Ry
     estimated scf accuracy    <          5.4E-11 Ry
     smearing contrib. (-TS)   =      -0.00003018 Ry
     internal energy E=F+TS    =   -4240.94143089 Ry

     The total energy is F=E-TS. E is the sum of the following terms:
     one-electron contribution =    -165.25916134 Ry
     hartree contribution      =     116.10333975 Ry
     xc contribution           =    -201.42792205 Ry
     ewald contribution        =    -222.84724713 Ry
     one-center paw contrib.   =   -3767.51044011 Ry

     convergence has been achieved in  16 iterations

     Forces acting on atoms (cartesian axes, Ry/au):

     atom    1 type  1   force =     0.00000000   -0.01703558    0.00000000
     atom    2 type  1   force =     0.00000000    0.01703558    0.00000000
     atom    3 type  2   force =     0.00000000    0.00071538    0.00000000
     atom    4 type  2   force =     0.00000000   -0.00071538    0.00000000
     atom    5 type  2   force =     0.00000000    0.00365508    0.00036826
     atom    6 type  2   force =     0.00000000   -0.00365508   -0.00036826
     atom    7 type  2   force =     0.00000000    0.00365508   -0.00036826
     atom    8 type  2   force =     0.00000000   -0.00365508    0.00036826
     atom    9 type  2   force =     0.00000000    0.01833676    0.01621211
     atom   10 type  2   force =     0.00000000   -0.01833676   -0.01621211
     atom   11 type  2   force =     0.00000000    0.01833676   -0.01621211
     atom   12 type  2   force =     0.00000000   -0.01833676    0.01621211

     Total force =     0.055061     Total SCF correction =     0.000012

     Computing stress (Cartesian axis) and pressure

          total   stress  (Ry/bohr**3)                   (kbar)     P=       -4.17
  -0.00001858  -0.00000000   0.00000000           -2.73       -0.00        0.00
   0.00000000  -0.00002782   0.00000000            0.00       -4.09        0.00
   0.00000000   0.00000000  -0.00003859            0.00        0.00       -5.68

     General routines

     Parallel routines

   This run was terminated on:  15:16: 8  19Nov2021

   JOB DONE.